# Solution for model KHB05250
# Objective value = 106940226
I.SUPW.1 0
I.SUPW.2 1
I.SUPW.3 0
I.SUPW.4 1
I.SUPW.5 0
I.SUPW.6 0
I.SUPW.7 0
I.SUPW.8 0
I.SUPW.9 1
I.SUPW10 0
I.SUPW11 0
I.SUPW12 1
I.SUPW13 1
I.SUPW14 0
I.SUPW15 0
I.SUPW16 1
I.SUPW17 1
I.SUPW18 1
I.SUPW19 1
I.SUPW20 0
I.SUPW21 0
I.SUPW22 1
I.SUPW23 1
I.SUPW24 1
F....SUP 58268
F.SUPW.1 0
F.SUPW.2 4917
F.SUPW.3 0
F.SUPW.4 5000
F.SUPW.5 0
F.SUPW.6 0
F.SUPW.7 0
F.SUPW.8 0
F.SUPW.9 5000
F.SUPW10 0
F.SUPW11 0
F.SUPW12 4417
F.SUPW13 5000
F.SUPW14 0
F.SUPW15 0
F.SUPW16 5000
F.SUPW17 5000
F.SUPW18 5000
F.SUPW19 5000
F.SUPW20 0
F.SUPW21 0
F.SUPW22 2241
F.SUPW23 1693
F.SUPW24 5000
F.SUPW25 5000
F.C.1... 146
F.W.1C.1 0
F.W.2C.1 0
F.W.3C.1 0
F.W.4C.1 0
F.W.5C.1 0
F.W.6C.1 0
F.W.7C.1 0
F.W.8C.1 0
F.W.9C.1 0
F.W10C.1 0
F.W11C.1 0
F.W12C.1 0
F.W13C.1 0
F.W14C.1 0
F.W15C.1 0
F.W16C.1 0
F.W17C.1 0
F.W18C.1 0
F.W19C.1 146
F.W20C.1 0
F.W21C.1 0
F.W22C.1 0
F.W23C.1 0
F.W24C.1 0
F.W25C.1 0
F.C.2... 87
F.W.1C.2 0
F.W.2C.2 0
F.W.3C.2 0
F.W.4C.2 0
F.W.5C.2 0
F.W.6C.2 0
F.W.7C.2 0
F.W.8C.2 0
F.W.9C.2 0
F.W10C.2 0
F.W11C.2 0
F.W12C.2 0
F.W13C.2 0
F.W14C.2 0
F.W15C.2 0
F.W16C.2 0
F.W17C.2 0
F.W18C.2 0
F.W19C.2 87
F.W20C.2 0
F.W21C.2 0
F.W22C.2 0
F.W23C.2 0
F.W24C.2 0
F.W25C.2 0
F.C.3... 672
F.W.1C.3 0
F.W.2C.3 0
F.W.3C.3 0
F.W.4C.3 0
F.W.5C.3 0
F.W.6C.3 0
F.W.7C.3 0
F.W.8C.3 0
F.W.9C.3 0
F.W10C.3 0
F.W11C.3 0
F.W12C.3 0
F.W13C.3 322
F.W14C.3 0
F.W15C.3 0
F.W16C.3 0
F.W17C.3 0
F.W18C.3 0
F.W19C.3 0
F.W20C.3 0
F.W21C.3 0
F.W22C.3 0
F.W23C.3 0
F.W24C.3 0
F.W25C.3 350
F.C.4... 1337
F.W.1C.4 0
F.W.2C.4 0
F.W.3C.4 0
F.W.4C.4 0
F.W.5C.4 0
F.W.6C.4 0
F.W.7C.4 0
F.W.8C.4 0
F.W.9C.4 0
F.W10C.4 0
F.W11C.4 0
F.W12C.4 0
F.W13C.4 0
F.W14C.4 0
F.W15C.4 0
F.W16C.4 0
F.W17C.4 0
F.W18C.4 0
F.W19C.4 0
F.W20C.4 0
F.W21C.4 0
F.W22C.4 0
F.W23C.4 0
F.W24C.4 1337
F.W25C.4 0
F.C.5... 31
F.W.1C.5 0
F.W.2C.5 0
F.W.3C.5 0
F.W.4C.5 0
F.W.5C.5 0
F.W.6C.5 0
F.W.7C.5 0
F.W.8C.5 0
F.W.9C.5 0
F.W10C.5 0
F.W11C.5 0
F.W12C.5 0
F.W13C.5 0
F.W14C.5 0
F.W15C.5 0
F.W16C.5 0
F.W17C.5 0
F.W18C.5 0
F.W19C.5 31
F.W20C.5 0
F.W21C.5 0
F.W22C.5 0
F.W23C.5 0
F.W24C.5 0
F.W25C.5 0
F.C.6... 559
F.W.1C.6 0
F.W.2C.6 0
F.W.3C.6 0
F.W.4C.6 0
F.W.5C.6 0
F.W.6C.6 0
F.W.7C.6 0
F.W.8C.6 0
F.W.9C.6 0
F.W10C.6 0
F.W11C.6 0
F.W12C.6 0
F.W13C.6 559
F.W14C.6 0
F.W15C.6 0
F.W16C.6 0
F.W17C.6 0
F.W18C.6 0
F.W19C.6 0
F.W20C.6 0
F.W21C.6 0
F.W22C.6 0
F.W23C.6 0
F.W24C.6 0
F.W25C.6 0
F.C.7... 2370
F.W.1C.7 0
F.W.2C.7 2370
F.W.3C.7 0
F.W.4C.7 0
F.W.5C.7 0
F.W.6C.7 0
F.W.7C.7 0
F.W.8C.7 0
F.W.9C.7 0
F.W10C.7 0
F.W11C.7 0
F.W12C.7 0
F.W13C.7 0
F.W14C.7 0
F.W15C.7 0
F.W16C.7 0
F.W17C.7 0
F.W18C.7 0
F.W19C.7 0
F.W20C.7 0
F.W21C.7 0
F.W22C.7 0
F.W23C.7 0
F.W24C.7 0
F.W25C.7 0
F.C.8... 1089
F.W.1C.8 0
F.W.2C.8 0
F.W.3C.8 0
F.W.4C.8 0
F.W.5C.8 0
F.W.6C.8 0
F.W.7C.8 0
F.W.8C.8 0
F.W.9C.8 1089
F.W10C.8 0
F.W11C.8 0
F.W12C.8 0
F.W13C.8 0
F.W14C.8 0
F.W15C.8 0
F.W16C.8 0
F.W17C.8 0
F.W18C.8 0
F.W19C.8 0
F.W20C.8 0
F.W21C.8 0
F.W22C.8 0
F.W23C.8 0
F.W24C.8 0
F.W25C.8 0
F.C.9... 33
F.W.1C.9 0
F.W.2C.9 0
F.W.3C.9 0
F.W.4C.9 0
F.W.5C.9 0
F.W.6C.9 0
F.W.7C.9 0
F.W.8C.9 0
F.W.9C.9 0
F.W10C.9 0
F.W11C.9 0
F.W12C.9 0
F.W13C.9 0
F.W14C.9 0
F.W15C.9 0
F.W16C.9 0
F.W17C.9 0
F.W18C.9 0
F.W19C.9 0
F.W20C.9 0
F.W21C.9 0
F.W22C.9 0
F.W23C.9 33
F.W24C.9 0
F.W25C.9 0
F.C10... 32
F.W.1C10 0
F.W.2C10 0
F.W.3C10 0
F.W.4C10 0
F.W.5C10 0
F.W.6C10 0
F.W.7C10 0
F.W.8C10 0
F.W.9C10 0
F.W10C10 0
F.W11C10 0
F.W12C10 0
F.W13C10 0
F.W14C10 0
F.W15C10 0
F.W16C10 0
F.W17C10 0
F.W18C10 0
F.W19C10 32
F.W20C10 0
F.W21C10 0
F.W22C10 0
F.W23C10 0
F.W24C10 0
F.W25C10 0
F.C11... 5495
F.W.1C11 0
F.W.2C11 0
F.W.3C11 0
F.W.4C11 3628
F.W.5C11 0
F.W.6C11 0
F.W.7C11 0
F.W.8C11 0
F.W.9C11 0
F.W10C11 0
F.W11C11 0
F.W12C11 0
F.W13C11 0
F.W14C11 0
F.W15C11 0
F.W16C11 0
F.W17C11 0
F.W18C11 0
F.W19C11 0
F.W20C11 0
F.W21C11 0
F.W22C11 0
F.W23C11 0
F.W24C11 0
F.W25C11 1867
F.C12... 904
F.W.1C12 0
F.W.2C12 0
F.W.3C12 0
F.W.4C12 0
F.W.5C12 0
F.W.6C12 0
F.W.7C12 0
F.W.8C12 0
F.W.9C12 0
F.W10C12 0
F.W11C12 0
F.W12C12 0
F.W13C12 0
F.W14C12 0
F.W15C12 0
F.W16C12 0
F.W17C12 0
F.W18C12 0
F.W19C12 0
F.W20C12 0
F.W21C12 0
F.W22C12 0
F.W23C12 0
F.W24C12 0
F.W25C12 904
F.C13... 1466
F.W.1C13 0
F.W.2C13 0
F.W.3C13 0
F.W.4C13 0
F.W.5C13 0
F.W.6C13 0
F.W.7C13 0
F.W.8C13 0
F.W.9C13 895
F.W10C13 0
F.W11C13 0
F.W12C13 0
F.W13C13 0
F.W14C13 0
F.W15C13 0
F.W16C13 0
F.W17C13 0
F.W18C13 571
F.W19C13 0
F.W20C13 0
F.W21C13 0
F.W22C13 0
F.W23C13 0
F.W24C13 0
F.W25C13 0
F.C14... 143
F.W.1C14 0
F.W.2C14 0
F.W.3C14 0
F.W.4C14 0
F.W.5C14 0
F.W.6C14 0
F.W.7C14 0
F.W.8C14 0
F.W.9C14 0
F.W10C14 0
F.W11C14 0
F.W12C14 0
F.W13C14 0
F.W14C14 0
F.W15C14 0
F.W16C14 0
F.W17C14 0
F.W18C14 0
F.W19C14 0
F.W20C14 0
F.W21C14 0
F.W22C14 0
F.W23C14 0
F.W24C14 51
F.W25C14 92
F.C15... 615
F.W.1C15 0
F.W.2C15 0
F.W.3C15 0
F.W.4C15 0
F.W.5C15 0
F.W.6C15 0
F.W.7C15 0
F.W.8C15 0
F.W.9C15 0
F.W10C15 0
F.W11C15 0
F.W12C15 0
F.W13C15 615
F.W14C15 0
F.W15C15 0
F.W16C15 0
F.W17C15 0
F.W18C15 0
F.W19C15 0
F.W20C15 0
F.W21C15 0
F.W22C15 0
F.W23C15 0
F.W24C15 0
F.W25C15 0
F.C16... 564
F.W.1C16 0
F.W.2C16 0
F.W.3C16 0
F.W.4C16 0
F.W.5C16 0
F.W.6C16 0
F.W.7C16 0
F.W.8C16 0
F.W.9C16 0
F.W10C16 0
F.W11C16 0
F.W12C16 0
F.W13C16 0
F.W14C16 0
F.W15C16 0
F.W16C16 0
F.W17C16 0
F.W18C16 0
F.W19C16 564
F.W20C16 0
F.W21C16 0
F.W22C16 0
F.W23C16 0
F.W24C16 0
F.W25C16 0
F.C17... 226
F.W.1C17 0
F.W.2C17 0
F.W.3C17 0
F.W.4C17 0
F.W.5C17 0
F.W.6C17 0
F.W.7C17 0
F.W.8C17 0
F.W.9C17 0
F.W10C17 0
F.W11C17 0
F.W12C17 0
F.W13C17 0
F.W14C17 0
F.W15C17 0
F.W16C17 0
F.W17C17 0
F.W18C17 0
F.W19C17 226
F.W20C17 0
F.W21C17 0
F.W22C17 0
F.W23C17 0
F.W24C17 0
F.W25C17 0
F.C18... 3016
F.W.1C18 0
F.W.2C18 0
F.W.3C18 0
F.W.4C18 0
F.W.5C18 0
F.W.6C18 0
F.W.7C18 0
F.W.8C18 0
F.W.9C18 3016
F.W10C18 0
F.W11C18 0
F.W12C18 0
F.W13C18 0
F.W14C18 0
F.W15C18 0
F.W16C18 0
F.W17C18 0
F.W18C18 0
F.W19C18 0
F.W20C18 0
F.W21C18 0
F.W22C18 0
F.W23C18 0
F.W24C18 0
F.W25C18 0
F.C19... 253
F.W.1C19 0
F.W.2C19 0
F.W.3C19 0
F.W.4C19 253
F.W.5C19 0
F.W.6C19 0
F.W.7C19 0
F.W.8C19 0
F.W.9C19 0
F.W10C19 0
F.W11C19 0
F.W12C19 0
F.W13C19 0
F.W14C19 0
F.W15C19 0
F.W16C19 0
F.W17C19 0
F.W18C19 0
F.W19C19 0
F.W20C19 0
F.W21C19 0
F.W22C19 0
F.W23C19 0
F.W24C19 0
F.W25C19 0
F.C20... 195
F.W.1C20 0
F.W.2C20 0
F.W.3C20 0
F.W.4C20 0
F.W.5C20 0
F.W.6C20 0
F.W.7C20 0
F.W.8C20 0
F.W.9C20 0
F.W10C20 0
F.W11C20 0
F.W12C20 0
F.W13C20 0
F.W14C20 0
F.W15C20 0
F.W16C20 0
F.W17C20 0
F.W18C20 0
F.W19C20 195
F.W20C20 0
F.W21C20 0
F.W22C20 0
F.W23C20 0
F.W24C20 0
F.W25C20 0
F.C21... 38
F.W.1C21 0
F.W.2C21 0
F.W.3C21 0
F.W.4C21 2
F.W.5C21 0
F.W.6C21 0
F.W.7C21 0
F.W.8C21 0
F.W.9C21 0
F.W10C21 0
F.W11C21 0
F.W12C21 0
F.W13C21 0
F.W14C21 0
F.W15C21 0
F.W16C21 0
F.W17C21 0
F.W18C21 0
F.W19C21 36
F.W20C21 0
F.W21C21 0
F.W22C21 0
F.W23C21 0
F.W24C21 0
F.W25C21 0
F.C22... 807
F.W.1C22 0
F.W.2C22 0
F.W.3C22 0
F.W.4C22 0
F.W.5C22 0
F.W.6C22 0
F.W.7C22 0
F.W.8C22 0
F.W.9C22 0
F.W10C22 0
F.W11C22 0
F.W12C22 0
F.W13C22 807
F.W14C22 0
F.W15C22 0
F.W16C22 0
F.W17C22 0
F.W18C22 0
F.W19C22 0
F.W20C22 0
F.W21C22 0
F.W22C22 0
F.W23C22 0
F.W24C22 0
F.W25C22 0
F.C23... 551
F.W.1C23 0
F.W.2C23 0
F.W.3C23 0
F.W.4C23 0
F.W.5C23 0
F.W.6C23 0
F.W.7C23 0
F.W.8C23 0
F.W.9C23 0
F.W10C23 0
F.W11C23 0
F.W12C23 0
F.W13C23 0
F.W14C23 0
F.W15C23 0
F.W16C23 0
F.W17C23 0
F.W18C23 0
F.W19C23 0
F.W20C23 0
F.W21C23 0
F.W22C23 0
F.W23C23 0
F.W24C23 0
F.W25C23 551
F.C24... 304
F.W.1C24 0
F.W.2C24 0
F.W.3C24 0
F.W.4C24 0
F.W.5C24 0
F.W.6C24 0
F.W.7C24 0
F.W.8C24 0
F.W.9C24 0
F.W10C24 0
F.W11C24 0
F.W12C24 0
F.W13C24 304
F.W14C24 0
F.W15C24 0
F.W16C24 0
F.W17C24 0
F.W18C24 0
F.W19C24 0
F.W20C24 0
F.W21C24 0
F.W22C24 0
F.W23C24 0
F.W24C24 0
F.W25C24 0
F.C25... 814
F.W.1C25 0
F.W.2C25 0
F.W.3C25 0
F.W.4C25 0
F.W.5C25 0
F.W.6C25 0
F.W.7C25 0
F.W.8C25 0
F.W.9C25 0
F.W10C25 0
F.W11C25 0
F.W12C25 0
F.W13C25 0
F.W14C25 0
F.W15C25 0
F.W16C25 0
F.W17C25 0
F.W18C25 0
F.W19C25 814
F.W20C25 0
F.W21C25 0
F.W22C25 0
F.W23C25 0
F.W24C25 0
F.W25C25 0
F.C26... 337
F.W.1C26 0
F.W.2C26 0
F.W.3C26 0
F.W.4C26 0
F.W.5C26 0
F.W.6C26 0
F.W.7C26 0
F.W.8C26 0
F.W.9C26 0
F.W10C26 0
F.W11C26 0
F.W12C26 0
F.W13C26 0
F.W14C26 0
F.W15C26 0
F.W16C26 0
F.W17C26 0
F.W18C26 0
F.W19C26 0
F.W20C26 0
F.W21C26 0
F.W22C26 0
F.W23C26 0
F.W24C26 0
F.W25C26 337
F.C27... 4368
F.W.1C27 0
F.W.2C27 0
F.W.3C27 0
F.W.4C27 0
F.W.5C27 0
F.W.6C27 0
F.W.7C27 0
F.W.8C27 0
F.W.9C27 0
F.W10C27 0
F.W11C27 0
F.W12C27 4368
F.W13C27 0
F.W14C27 0
F.W15C27 0
F.W16C27 0
F.W17C27 0
F.W18C27 0
F.W19C27 0
F.W20C27 0
F.W21C27 0
F.W22C27 0
F.W23C27 0
F.W24C27 0
F.W25C27 0
F.C28... 577
F.W.1C28 0
F.W.2C28 0
F.W.3C28 0
F.W.4C28 0
F.W.5C28 0
F.W.6C28 0
F.W.7C28 0
F.W.8C28 0
F.W.9C28 0
F.W10C28 0
F.W11C28 0
F.W12C28 0
F.W13C28 0
F.W14C28 0
F.W15C28 0
F.W16C28 0
F.W17C28 0
F.W18C28 0
F.W19C28 0
F.W20C28 0
F.W21C28 0
F.W22C28 0
F.W23C28 0
F.W24C28 0
F.W25C28 577
F.C29... 482
F.W.1C29 0
F.W.2C29 0
F.W.3C29 0
F.W.4C29 0
F.W.5C29 0
F.W.6C29 0
F.W.7C29 0
F.W.8C29 0
F.W.9C29 0
F.W10C29 0
F.W11C29 0
F.W12C29 0
F.W13C29 482
F.W14C29 0
F.W15C29 0
F.W16C29 0
F.W17C29 0
F.W18C29 0
F.W19C29 0
F.W20C29 0
F.W21C29 0
F.W22C29 0
F.W23C29 0
F.W24C29 0
F.W25C29 0
F.C30... 495
F.W.1C30 0
F.W.2C30 0
F.W.3C30 0
F.W.4C30 0
F.W.5C30 0
F.W.6C30 0
F.W.7C30 0
F.W.8C30 0
F.W.9C30 0
F.W10C30 0
F.W11C30 0
F.W12C30 0
F.W13C30 495
F.W14C30 0
F.W15C30 0
F.W16C30 0
F.W17C30 0
F.W18C30 0
F.W19C30 0
F.W20C30 0
F.W21C30 0
F.W22C30 0
F.W23C30 0
F.W24C30 0
F.W25C30 0
F.C31... 231
F.W.1C31 0
F.W.2C31 0
F.W.3C31 0
F.W.4C31 0
F.W.5C31 0
F.W.6C31 0
F.W.7C31 0
F.W.8C31 0
F.W.9C31 0
F.W10C31 0
F.W11C31 0
F.W12C31 0
F.W13C31 231
F.W14C31 0
F.W15C31 0
F.W16C31 0
F.W17C31 0
F.W18C31 0
F.W19C31 0
F.W20C31 0
F.W21C31 0
F.W22C31 0
F.W23C31 0
F.W24C31 0
F.W25C31 0
F.C32... 322
F.W.1C32 0
F.W.2C32 0
F.W.3C32 0
F.W.4C32 0
F.W.5C32 0
F.W.6C32 0
F.W.7C32 0
F.W.8C32 0
F.W.9C32 0
F.W10C32 0
F.W11C32 0
F.W12C32 0
F.W13C32 0
F.W14C32 0
F.W15C32 0
F.W16C32 0
F.W17C32 0
F.W18C32 0
F.W19C32 0
F.W20C32 0
F.W21C32 0
F.W22C32 0
F.W23C32 0
F.W24C32 0
F.W25C32 322
F.C33... 685
F.W.1C33 0
F.W.2C33 0
F.W.3C33 0
F.W.4C33 0
F.W.5C33 0
F.W.6C33 0
F.W.7C33 0
F.W.8C33 0
F.W.9C33 0
F.W10C33 0
F.W11C33 0
F.W12C33 0
F.W13C33 685
F.W14C33 0
F.W15C33 0
F.W16C33 0
F.W17C33 0
F.W18C33 0
F.W19C33 0
F.W20C33 0
F.W21C33 0
F.W22C33 0
F.W23C33 0
F.W24C33 0
F.W25C33 0
F.C34... 12912
F.W.1C34 0
F.W.2C34 2547
F.W.3C34 0
F.W.4C34 0
F.W.5C34 0
F.W.6C34 0
F.W.7C34 0
F.W.8C34 0
F.W.9C34 0
F.W10C34 0
F.W11C34 0
F.W12C34 0
F.W13C34 0
F.W14C34 0
F.W15C34 0
F.W16C34 5000
F.W17C34 5000
F.W18C34 365
F.W19C34 0
F.W20C34 0
F.W21C34 0
F.W22C34 0
F.W23C34 0
F.W24C34 0
F.W25C34 0
F.C35... 325
F.W.1C35 0
F.W.2C35 0
F.W.3C35 0
F.W.4C35 0
F.W.5C35 0
F.W.6C35 0
F.W.7C35 0
F.W.8C35 0
F.W.9C35 0
F.W10C35 0
F.W11C35 0
F.W12C35 0
F.W13C35 0
F.W14C35 0
F.W15C35 0
F.W16C35 0
F.W17C35 0
F.W18C35 0
F.W19C35 325
F.W20C35 0
F.W21C35 0
F.W22C35 0
F.W23C35 0
F.W24C35 0
F.W25C35 0
F.C36... 366
F.W.1C36 0
F.W.2C36 0
F.W.3C36 0
F.W.4C36 0
F.W.5C36 0
F.W.6C36 0
F.W.7C36 0
F.W.8C36 0
F.W.9C36 0
F.W10C36 0
F.W11C36 0
F.W12C36 0
F.W13C36 0
F.W14C36 0
F.W15C36 0
F.W16C36 0
F.W17C36 0
F.W18C36 0
F.W19C36 366
F.W20C36 0
F.W21C36 0
F.W22C36 0
F.W23C36 0
F.W24C36 0
F.W25C36 0
F.C37... 3671
F.W.1C37 0
F.W.2C37 0
F.W.3C37 0
F.W.4C37 0
F.W.5C37 0
F.W.6C37 0
F.W.7C37 0
F.W.8C37 0
F.W.9C37 0
F.W10C37 0
F.W11C37 0
F.W12C37 0
F.W13C37 0
F.W14C37 0
F.W15C37 0
F.W16C37 0
F.W17C37 0
F.W18C37 1851
F.W19C37 0
F.W20C37 0
F.W21C37 0
F.W22C37 0
F.W23C37 0
F.W24C37 1820
F.W25C37 0
F.C38... 2213
F.W.1C38 0
F.W.2C38 0
F.W.3C38 0
F.W.4C38 0
F.W.5C38 0
F.W.6C38 0
F.W.7C38 0
F.W.8C38 0
F.W.9C38 0
F.W10C38 0
F.W11C38 0
F.W12C38 0
F.W13C38 0
F.W14C38 0
F.W15C38 0
F.W16C38 0
F.W17C38 0
F.W18C38 2213
F.W19C38 0
F.W20C38 0
F.W21C38 0
F.W22C38 0
F.W23C38 0
F.W24C38 0
F.W25C38 0
F.C39... 705
F.W.1C39 0
F.W.2C39 0
F.W.3C39 0
F.W.4C39 0
F.W.5C39 0
F.W.6C39 0
F.W.7C39 0
F.W.8C39 0
F.W.9C39 0
F.W10C39 0
F.W11C39 0
F.W12C39 0
F.W13C39 0
F.W14C39 0
F.W15C39 0
F.W16C39 0
F.W17C39 0
F.W18C39 0
F.W19C39 0
F.W20C39 0
F.W21C39 0
F.W22C39 0
F.W23C39 705
F.W24C39 0
F.W25C39 0
F.C40... 328
F.W.1C40 0
F.W.2C40 0
F.W.3C40 0
F.W.4C40 0
F.W.5C40 0
F.W.6C40 0
F.W.7C40 0
F.W.8C40 0
F.W.9C40 0
F.W10C40 0
F.W11C40 0
F.W12C40 0
F.W13C40 0
F.W14C40 0
F.W15C40 0
F.W16C40 0
F.W17C40 0
F.W18C40 0
F.W19C40 0
F.W20C40 0
F.W21C40 0
F.W22C40 0
F.W23C40 0
F.W24C40 328
F.W25C40 0
F.C41... 1681
F.W.1C41 0
F.W.2C41 0
F.W.3C41 0
F.W.4C41 0
F.W.5C41 0
F.W.6C41 0
F.W.7C41 0
F.W.8C41 0
F.W.9C41 0
F.W10C41 0
F.W11C41 0
F.W12C41 0
F.W13C41 0
F.W14C41 0
F.W15C41 0
F.W16C41 0
F.W17C41 0
F.W18C41 0
F.W19C41 1681
F.W20C41 0
F.W21C41 0
F.W22C41 0
F.W23C41 0
F.W24C41 0
F.W25C41 0
F.C42... 1117
F.W.1C42 0
F.W.2C42 0
F.W.3C42 0
F.W.4C42 1117
F.W.5C42 0
F.W.6C42 0
F.W.7C42 0
F.W.8C42 0
F.W.9C42 0
F.W10C42 0
F.W11C42 0
F.W12C42 0
F.W13C42 0
F.W14C42 0
F.W15C42 0
F.W16C42 0
F.W17C42 0
F.W18C42 0
F.W19C42 0
F.W20C42 0
F.W21C42 0
F.W22C42 0
F.W23C42 0
F.W24C42 0
F.W25C42 0
F.C43... 275
F.W.1C43 0
F.W.2C43 0
F.W.3C43 0
F.W.4C43 0
F.W.5C43 0
F.W.6C43 0
F.W.7C43 0
F.W.8C43 0
F.W.9C43 0
F.W10C43 0
F.W11C43 0
F.W12C43 0
F.W13C43 0
F.W14C43 0
F.W15C43 0
F.W16C43 0
F.W17C43 0
F.W18C43 0
F.W19C43 275
F.W20C43 0
F.W21C43 0
F.W22C43 0
F.W23C43 0
F.W24C43 0
F.W25C43 0
F.C44... 500
F.W.1C44 0
F.W.2C44 0
F.W.3C44 0
F.W.4C44 0
F.W.5C44 0
F.W.6C44 0
F.W.7C44 0
F.W.8C44 0
F.W.9C44 0
F.W10C44 0
F.W11C44 0
F.W12C44 0
F.W13C44 500
F.W14C44 0
F.W15C44 0
F.W16C44 0
F.W17C44 0
F.W18C44 0
F.W19C44 0
F.W20C44 0
F.W21C44 0
F.W22C44 0
F.W23C44 0
F.W24C44 0
F.W25C44 0
F.C45... 2241
F.W.1C45 0
F.W.2C45 0
F.W.3C45 0
F.W.4C45 0
F.W.5C45 0
F.W.6C45 0
F.W.7C45 0
F.W.8C45 0
F.W.9C45 0
F.W10C45 0
F.W11C45 0
F.W12C45 0
F.W13C45 0
F.W14C45 0
F.W15C45 0
F.W16C45 0
F.W17C45 0
F.W18C45 0
F.W19C45 0
F.W20C45 0
F.W21C45 0
F.W22C45 2241
F.W23C45 0
F.W24C45 0
F.W25C45 0
F.C46... 733
F.W.1C46 0
F.W.2C46 0
F.W.3C46 0
F.W.4C46 0
F.W.5C46 0
F.W.6C46 0
F.W.7C46 0
F.W.8C46 0
F.W.9C46 0
F.W10C46 0
F.W11C46 0
F.W12C46 0
F.W13C46 0
F.W14C46 0
F.W15C46 0
F.W16C46 0
F.W17C46 0
F.W18C46 0
F.W19C46 0
F.W20C46 0
F.W21C46 0
F.W22C46 0
F.W23C46 733
F.W24C46 0
F.W25C46 0
F.C47... 222
F.W.1C47 0
F.W.2C47 0
F.W.3C47 0
F.W.4C47 0
F.W.5C47 0
F.W.6C47 0
F.W.7C47 0
F.W.8C47 0
F.W.9C47 0
F.W10C47 0
F.W11C47 0
F.W12C47 0
F.W13C47 0
F.W14C47 0
F.W15C47 0
F.W16C47 0
F.W17C47 0
F.W18C47 0
F.W19C47 0
F.W20C47 0
F.W21C47 0
F.W22C47 0
F.W23C47 222
F.W24C47 0
F.W25C47 0
F.C48... 49
F.W.1C48 0
F.W.2C48 0
F.W.3C48 0
F.W.4C48 0
F.W.5C48 0
F.W.6C48 0
F.W.7C48 0
F.W.8C48 0
F.W.9C48 0
F.W10C48 0
F.W11C48 0
F.W12C48 49
F.W13C48 0
F.W14C48 0
F.W15C48 0
F.W16C48 0
F.W17C48 0
F.W18C48 0
F.W19C48 0
F.W20C48 0
F.W21C48 0
F.W22C48 0
F.W23C48 0
F.W24C48 0
F.W25C48 0
F.C49... 1464
F.W.1C49 0
F.W.2C49 0
F.W.3C49 0
F.W.4C49 0
F.W.5C49 0
F.W.6C49 0
F.W.7C49 0
F.W.8C49 0
F.W.9C49 0
F.W10C49 0
F.W11C49 0
F.W12C49 0
F.W13C49 0
F.W14C49 0
F.W15C49 0
F.W16C49 0
F.W17C49 0
F.W18C49 0
F.W19C49 0
F.W20C49 0
F.W21C49 0
F.W22C49 0
F.W23C49 0
F.W24C49 1464
F.W25C49 0
F.C50... 222
F.W.1C50 0
F.W.2C50 0
F.W.3C50 0
F.W.4C50 0
F.W.5C50 0
F.W.6C50 0
F.W.7C50 0
F.W.8C50 0
F.W.9C50 0
F.W10C50 0
F.W11C50 0
F.W12C50 0
F.W13C50 0
F.W14C50 0
F.W15C50 0
F.W16C50 0
F.W17C50 0
F.W18C50 0
F.W19C50 222
F.W20C50 0
F.W21C50 0
F.W22C50 0
F.W23C50 0
F.W24C50 0
F.W25C50 0
